11
0,20,11,1,12,10,13,20,6,12,1
20,0,10,20,16,14,14,3,15,10,12
11,10,0,10,3,10,5,1,2,11,6
1,20,10,0,1,4,18,10,18,3,6
12,16,3,1,0,3,20,7,11,14,2
10,14,10,4,3,0,15,11,4,15,8
13,14,5,18,20,15,0,7,4,15,3
20,3,1,10,7,11,7,0,1,17,17
6,15,2,18,11,4,4,1,0,2,20
12,10,11,3,14,15,15,17,2,0,11
1,12,6,6,2,8,3,17,20,11,0
